40
    95    62     4    64    53    38    62    74    64    62     1    13    56    22    50    83    83    59    18    90    30    67    90    41    10    94    30    49    62    40    79    27    56    59    58    93    87    57    65    68
     3     1     2     2     1     3     5     8     8     1     2     4     7     3     5    10     2     2     3     8     1     6     7     1     6     1     2     4     3     7     6     1    10    10    10     8     9     4     1     3
   395     0   588   300   333    31   340     0   512   537   457     0     0   166     0     0   578     0   571    25     0   515     0     0     0   552     0   222   216     0   454     0    85     0   606     0     0   353     0   498
